100
290.0 490.0 
290.0 490.0 
290.0 490.0 
260.0 430.0 
295.0 410.0 
290.0 490.0 
290.0 490.0 
290.0 490.0 
260.0 430.0 
295.0 410.0 
290.0 490.0 
290.0 490.0 
290.0 490.0 
260.0 430.0 
295.0 410.0 
290.0 490.0 
260.0 430.0 
290.0 490.0 
290.0 490.0 
295.0 410.0 
290.0 490.0 
290.0 490.0 
290.0 490.0 
260.0 430.0 
295.0 410.0 
290.0 490.0 
290.0 490.0 
290.0 490.0 
260.0 430.0 
295.0 410.0 
290.0 490.0 
290.0 490.0 
290.0 490.0 
260.0 430.0 
295.0 410.0 
290.0 490.0 
290.0 490.0 
290.0 490.0 
260.0 430.0 
295.0 410.0 
290.0 490.0 
290.0 490.0 
290.0 490.0 
260.0 430.0 
295.0 410.0 
290.0 490.0 
290.0 490.0 
290.0 490.0 
260.0 430.0 
295.0 410.0 
260.0 430.0 
290.0 490.0 
290.0 490.0 
290.0 490.0 
295.0 410.0 
290.0 490.0 
290.0 490.0 
290.0 490.0 
260.0 430.0 
295.0 410.0 
260.0 430.0 
290.0 490.0 
290.0 490.0 
290.0 490.0 
295.0 410.0 
290.0 490.0 
290.0 490.0 
290.0 490.0 
260.0 430.0 
295.0 410.0 
290.0 490.0 
260.0 430.0 
290.0 490.0 
290.0 490.0 
295.0 410.0 
260.0 430.0 
290.0 490.0 
290.0 490.0 
290.0 490.0 
295.0 410.0 
260.0 430.0 
290.0 490.0 
290.0 490.0 
290.0 490.0 
295.0 410.0 
260.0 430.0 
290.0 490.0 
290.0 490.0 
290.0 490.0 
295.0 410.0 
260.0 430.0 
290.0 490.0 
290.0 490.0 
290.0 490.0 
295.0 410.0 
260.0 430.0 
290.0 490.0 
290.0 490.0 
290.0 490.0 
295.0 410.0 

0 12 10 11 6 5 4 2 1 7 16 15 14 9 13 20 
0 11 6 5 4 2 1 7 16 15 14 9 10 12 13 20 
0 6 5 4 2 1 7 16 15 14 9 10 11 12 13 20 
0 10 11 6 5 4 2 1 7 16 15 8 9 13 20 
0 6 5 4 3 19 18 17 16 7 8 9 10 12 20 
0 11 6 5 4 2 1 7 16 15 14 9 10 12 13 20 
0 6 5 4 2 1 7 16 15 14 9 10 11 12 13 20 
0 12 10 11 6 5 4 2 1 7 16 15 14 9 13 20 
0 10 11 6 5 4 2 1 7 16 15 8 9 13 20 
0 6 5 4 3 19 18 17 16 7 8 9 10 12 20 
0 6 5 4 2 1 7 16 15 14 9 10 11 12 13 20 
0 11 6 5 4 2 1 7 16 15 14 9 10 12 13 20 
0 12 10 11 6 5 4 2 1 7 16 15 14 9 13 20 
0 10 11 6 5 4 2 1 7 16 15 8 9 13 20 
0 6 5 4 3 19 18 17 16 7 8 9 10 12 20 
0 6 5 4 2 1 7 16 15 14 9 10 11 12 13 20 
0 10 11 6 5 4 2 1 7 16 15 8 9 13 20 
0 11 6 5 4 2 1 7 16 15 14 9 10 12 13 20 
0 12 10 11 6 5 4 2 1 7 16 15 14 9 13 20 
0 6 5 4 3 19 18 17 16 7 8 9 10 12 20 
0 6 5 4 2 1 7 16 15 14 9 10 11 12 13 20 
0 11 6 5 4 2 1 7 16 15 14 9 10 12 13 20 
0 12 10 11 6 5 4 2 1 7 16 15 14 9 13 20 
0 10 11 6 5 4 2 1 7 16 15 8 9 13 20 
0 6 5 4 3 19 18 17 16 7 8 9 10 12 20 
0 6 5 4 2 1 7 16 15 14 9 10 11 12 13 20 
0 12 10 11 6 5 4 2 1 7 16 15 14 9 13 20 
0 11 6 5 4 2 1 7 16 15 14 9 10 12 13 20 
0 10 11 6 5 4 2 1 7 16 15 8 9 13 20 
0 6 5 4 3 19 18 17 16 7 8 9 10 12 20 
0 6 5 4 2 1 7 16 15 14 9 10 11 12 13 20 
0 12 10 11 6 5 4 2 1 7 16 15 14 9 13 20 
0 11 6 5 4 2 1 7 16 15 14 9 10 12 13 20 
0 10 11 6 5 4 2 1 7 16 15 8 9 13 20 
0 6 5 4 3 19 18 17 16 7 8 9 10 12 20 
0 6 5 4 2 1 7 16 15 14 9 10 11 12 13 20 
0 11 6 5 4 2 1 7 16 15 14 9 10 12 13 20 
0 12 10 11 6 5 4 2 1 7 16 15 14 9 13 20 
0 10 11 6 5 4 2 1 7 16 15 8 9 13 20 
0 6 5 4 3 19 18 17 16 7 8 9 10 12 20 
0 12 10 11 6 5 4 2 1 7 16 15 14 9 13 20 
0 6 5 4 2 1 7 16 15 14 9 10 11 12 13 20 
0 11 6 5 4 2 1 7 16 15 14 9 10 12 13 20 
0 10 11 6 5 4 2 1 7 16 15 8 9 13 20 
0 6 5 4 3 19 18 17 16 7 8 9 10 12 20 
0 12 10 11 6 5 4 2 1 7 16 15 14 9 13 20 
0 6 5 4 2 1 7 16 15 14 9 10 11 12 13 20 
0 11 6 5 4 2 1 7 16 15 14 9 10 12 13 20 
0 10 11 6 5 4 2 1 7 16 15 8 9 13 20 
0 6 5 4 3 19 18 17 16 7 8 9 10 12 20 
0 10 11 6 5 4 2 1 7 16 15 8 9 13 20 
0 6 5 4 2 1 7 16 15 14 9 10 11 12 13 20 
0 11 6 5 4 2 1 7 16 15 14 9 10 12 13 20 
0 12 10 11 6 5 4 2 1 7 16 15 14 9 13 20 
0 6 5 4 3 19 18 17 16 7 8 9 10 12 20 
0 12 10 11 6 5 4 2 1 7 16 15 14 9 13 20 
0 6 5 4 2 1 7 16 15 14 9 10 11 12 13 20 
0 11 6 5 4 2 1 7 16 15 14 9 10 12 13 20 
0 10 11 6 5 4 2 1 7 16 15 8 9 13 20 
0 6 5 4 3 19 18 17 16 7 8 9 10 12 20 
0 10 11 6 5 4 2 1 7 16 15 8 9 13 20 
0 6 5 4 2 1 7 16 15 14 9 10 11 12 13 20 
0 12 10 11 6 5 4 2 1 7 16 15 14 9 13 20 
0 11 6 5 4 2 1 7 16 15 14 9 10 12 13 20 
0 6 5 4 3 19 18 17 16 7 8 9 10 12 20 
0 11 6 5 4 2 1 7 16 15 14 9 10 12 13 20 
0 6 5 4 2 1 7 16 15 14 9 10 11 12 13 20 
0 12 10 11 6 5 4 2 1 7 16 15 14 9 13 20 
0 10 11 6 5 4 2 1 7 16 15 8 9 13 20 
0 6 5 4 3 19 18 17 16 7 8 9 10 12 20 
0 11 6 5 4 2 1 7 16 15 14 9 10 12 13 20 
0 10 11 6 5 4 2 1 7 16 15 8 9 13 20 
0 6 5 4 2 1 7 16 15 14 9 10 11 12 13 20 
0 12 10 11 6 5 4 2 1 7 16 15 14 9 13 20 
0 6 5 4 3 19 18 17 16 7 8 9 10 12 20 
0 10 11 6 5 4 2 1 7 16 15 8 9 13 20 
0 6 5 4 2 1 7 16 15 14 9 10 11 12 13 20 
0 11 6 5 4 2 1 7 16 15 14 9 10 12 13 20 
0 12 10 11 6 5 4 2 1 7 16 15 14 9 13 20 
0 6 5 4 3 19 18 17 16 7 8 9 10 12 20 
0 10 11 6 5 4 2 1 7 16 15 8 9 13 20 
0 6 5 4 2 1 7 16 15 14 9 10 11 12 13 20 
0 11 6 5 4 2 1 7 16 15 14 9 10 12 13 20 
0 12 10 11 6 5 4 2 1 7 16 15 14 9 13 20 
0 6 5 4 3 19 18 17 16 7 8 9 10 12 20 
0 10 11 6 5 4 2 1 7 16 15 8 9 13 20 
0 6 5 4 2 1 7 16 15 14 9 10 11 12 13 20 
0 11 6 5 4 2 1 7 16 15 14 9 10 12 13 20 
0 12 10 11 6 5 4 2 1 7 16 15 14 9 13 20 
0 6 5 4 3 19 18 17 16 7 8 9 10 12 20 
0 10 11 6 5 4 2 1 7 16 15 8 9 13 20 
0 6 5 4 2 1 7 16 15 14 9 10 11 12 13 20 
0 11 6 5 4 2 1 7 16 15 14 9 10 12 13 20 
0 12 10 11 6 5 4 2 1 7 16 15 14 9 13 20 
0 6 5 4 3 19 18 17 16 7 8 9 10 12 20 
0 10 11 6 5 4 2 1 7 16 15 8 9 13 20 
0 6 5 4 2 1 7 16 15 14 9 10 11 12 13 20 
0 11 6 5 4 2 1 7 16 15 14 9 10 12 13 20 
0 12 10 11 6 5 4 2 1 7 16 15 14 9 13 20 
0 6 5 4 3 19 18 17 16 7 8 9 10 12 20 
